(declare-fun |b1[typeInv:U_2_int]| () Bool)
(declare-fun |b34[Buffersidfy.15:20!1659]| () Bool)
(declare-fun |b30[PagedBetreeidfy.49:15!1085]| () Bool)
(declare-fun |b36[PagedBetreeidfy.77:16]| () Bool)
(declare-fun |b17[cast:U_2_regex]| () Bool)
(declare-fun |b6[funType:real_2_U]| () Bool)
(declare-fun |b7[typeInv:U_2_bool]| () Bool)
(declare-fun |b2[cast:U_2_int]| () Bool)
(declare-fun |b23[typeInv:IMapTypeInv1]| () Bool)
(declare-fun |b8[cast:U_2_bool]| () Bool)
(declare-fun |b24[funType:IMap#Elements]| () Bool)
(declare-fun |b21[ctor:IMapType]| () Bool)
(declare-fun |b18[funType:regex_2_U]| () Bool)
(declare-fun |b25[funType:IMap#Domain]| () Bool)
(declare-fun |b4[typeInv:U_2_real]| () Bool)
(declare-fun |b3[funType:int_2_U]| () Bool)
(declare-fun |b29[funType:AsFuelBottom]| () Bool)
(declare-fun |b32[PagedBetreeidfy.69:5!1156]| () Bool)
(declare-fun |b26[funType:$LS]| () Bool)
(declare-fun |b22[typeInv:IMapTypeInv0]| () Bool)
(declare-fun |b37[Buffersidfy.17:12]| () Bool)
(declare-fun |b12[funType:rmode_2_U]| () Bool)
(declare-fun |b35[Buffersidfy.16:19!1676]| () Bool)
(declare-fun |b9[funType:bool_2_U]| () Bool)
(declare-fun |b28[PagedBetreeidfy.49:15]| () Bool)
(declare-fun |b39[]| () Bool)
(declare-fun |b20[DafnyPreludebpl.89:29]| () Bool)
(declare-fun |b33[PagedBetreeidfy.72:15!1188]| () Bool)
(declare-fun |b13[typeInv:U_2_string]| () Bool)
(declare-fun |b38[]| () Bool)
(declare-fun |b40[]| () Bool)
(declare-fun |b41[]| () Bool)
(declare-fun |b27[funType:PagedBetree.ChildMap.mapp]| () Bool)
(declare-fun |b31[unknown.0:0!1121]| () Bool)
(declare-fun |b15[funType:string_2_U]| () Bool)
(declare-fun |b14[cast:U_2_string]| () Bool)
(declare-fun |b11[cast:U_2_rmode]| () Bool)
(declare-fun |b10[typeInv:U_2_rmode]| () Bool)
(declare-fun |b5[cast:U_2_real]| () Bool)
(declare-fun |b16[typeInv:U_2_regex]| () Bool)
(declare-fun |b19[funType:Lit]| () Bool)
(set-info :smt-lib-version |2.6|)
(set-info :category |"industrial"|)
(set-info :boogie-vc-id CheckWellformed$$PagedBetree.BetreeNode.Child)
(set-option :print-success false)
(set-option :auto_config false)
(set-option :type_check true)
(set-option :smt.case_split 3)
(set-option :smt.qi.eager_threshold 100)
(set-option :smt.delay_units true)
(set-option :smt.arith.solver 2)
(set-option :smt.arith.nl false)
(set-option :smt.mbqi false)
(set-option :model.compact false)
(set-option :model.v2 true)
(set-option :pp.bv_literals false)
(declare-sort T@T 0)
(declare-sort T@U 0)
(declare-fun Ctor (T@T) Int)
(declare-fun intType () T@T)
(declare-fun realType () T@T)
(declare-fun boolType () T@T)
(declare-fun rmodeType () T@T)
(declare-fun stringType () T@T)
(declare-fun regexType () T@T)
(declare-fun int_2_U (Int) T@U)
(declare-fun U_2_int (T@U) Int)
(declare-fun type (T@U) T@T)
(declare-fun real_2_U (Real) T@U)
(declare-fun U_2_real (T@U) Real)
(declare-fun bool_2_U (Bool) T@U)
(declare-fun U_2_bool (T@U) Bool)
(declare-fun rmode_2_U (RoundingMode) T@U)
(declare-fun U_2_rmode (T@U) RoundingMode)
(declare-fun string_2_U (String) T@U)
(declare-fun U_2_string (T@U) String)
(declare-fun regex_2_U ((RegEx String)) T@U)
(declare-fun U_2_regex (T@U) (RegEx String))
(declare-fun Lit (T@U) T@U)
(declare-fun IMapType (T@T T@T) T@T)
(declare-fun IMapTypeInv0 (T@T) T@T)
(declare-fun IMapTypeInv1 (T@T) T@T)
(declare-fun |IMap#Elements| (T@U) T@U)
(declare-fun MapType0Type (T@T T@T) T@T)
(declare-fun |IMap#Domain| (T@U) T@U)
(declare-fun $LS (T@U) T@U)
(declare-fun LayerTypeType () T@T)
(declare-fun PagedBetree.ChildMap.mapp (T@U) T@U)
(declare-fun BoxType () T@T)
(declare-fun PagedBetree.ChildMap.WF (T@U T@U) Bool)
(declare-fun DatatypeTypeType () T@T)
(declare-fun AsFuelBottom (T@U) T@U)
(declare-fun $LZ () T@U)
(declare-fun PagedBetree.BetreeNode.WF (T@U T@U) Bool)
(declare-fun $Unbox (T@T T@U) T@U)
(declare-fun MapType0Select (T@U T@U) T@U)
(declare-fun $Box (T@U) T@U)
(declare-fun |k#0@@0!1333!0| (T@U T@U) T@U)
(declare-fun Buffers.__default.AnyKey (T@U) Bool)
(declare-fun $Is (T@U T@U) Bool)
(declare-fun Tclass.KeyType.Key () T@U)
(declare-fun SeqType (T@T) T@T)
(declare-fun Buffers.__default.Total (T@U) Bool)
(declare-fun |PagedBetree.BetreeNode.WF#canCall| (T@U) Bool)
(declare-fun PagedBetree.ChildMap.ChildMap_q (T@U) Bool)
(declare-fun |Buffers.__default.AnyKey#canCall| (T@U) Bool)
(declare-fun |Buffers.__default.Total#canCall| (T@U) Bool)
(declare-fun Tclass.PagedBetree.ChildMap () T@U)
(declare-fun $FunctionContextHeight () Int)
(declare-fun |PagedBetree.ChildMap.WF#canCall| (T@U) Bool)
(declare-fun PagedBetree.BetreeNode.BetreeNode_q (T@U) Bool)
(declare-fun |#PagedBetree.BetreeNode.BetreeNode| (T@U T@U) T@U)
(declare-fun |a#6#1#0@@0!1349!1| (T@U) T@U)
(declare-fun |a#6#0#0@@0!1349!2| (T@U) T@U)
(declare-fun PagedBetree.BetreeNode.children (T@U) T@U)
(declare-fun Tclass.PagedBetree.BetreeNode () T@U)
(declare-fun Tclass.ValueMessage.Message () T@U)
(declare-fun TotalKMMapMod.__default.DefaultV () T@U)
(declare-fun TotalKMMapMod.__default.TerminalValue (T@U) Bool)
(declare-fun |k#0@@82!3099!3| (T@U) T@U)
(declare-fun TISet (T@U) T@U)
(declare-fun MapType6Type (T@T T@T) T@T)
(declare-fun refType () T@T)
(declare-fun $_Frame@0 () T@U)
(declare-fun MapType1Type () T@T)
(declare-fun $Heap@@50 () T@U)
(declare-fun this@@248 () T@U)
(declare-fun |key#0@@61| () T@U)
(declare-fun $_Frame@0@@0 () T@U)
(declare-fun StartFuel_Sequences._default.Range () T@U)
(declare-fun StartFuelAssert_Sequences._default.Range () T@U)
(declare-fun StartFuel_Sequences._default.ApplyOpaque () T@U)
(declare-fun StartFuelAssert_Sequences._default.ApplyOpaque () T@U)
(declare-fun StartFuel_Sequences._default.remove () T@U)
(declare-fun StartFuelAssert_Sequences._default.remove () T@U)
(declare-fun StartFuel_Sequences._default.RemoveOneValue () T@U)
(declare-fun StartFuelAssert_Sequences._default.RemoveOneValue () T@U)
(declare-fun StartFuel_Sequences._default.insert () T@U)
(declare-fun StartFuelAssert_Sequences._default.insert () T@U)
(declare-fun StartFuel_Sequences._default.replace1with2 () T@U)
(declare-fun StartFuelAssert_Sequences._default.replace1with2 () T@U)
(declare-fun StartFuel_Sequences._default.replace2with1 () T@U)
(declare-fun StartFuelAssert_Sequences._default.replace2with1 () T@U)
(declare-fun StartFuel_Sequences._default.concat () T@U)
(declare-fun StartFuelAssert_Sequences._default.concat () T@U)
(declare-fun StartFuel_Sequences._default.concat3 () T@U)
(declare-fun StartFuelAssert_Sequences._default.concat3 () T@U)
(declare-fun StartFuel_Sequences._default.concatSeq () T@U)
(declare-fun StartFuelAssert_Sequences._default.concatSeq () T@U)
(declare-fun StartFuel_Sequences._default.IsPrefix () T@U)
(declare-fun StartFuelAssert_Sequences._default.IsPrefix () T@U)
(declare-fun StartFuel_Sequences._default.IsSuffix () T@U)
(declare-fun StartFuelAssert_Sequences._default.IsSuffix () T@U)
(declare-fun StartFuelAssert_Sequences._default.SeqIndexIterate () T@U)
(declare-fun StartFuel_Sequences._default.SeqIndex () T@U)
(declare-fun StartFuelAssert_Sequences._default.SeqIndex () T@U)
(declare-fun StartFuel_Sequences._default.SeqOfLength () T@U)
(declare-fun StartFuelAssert_Sequences._default.SeqOfLength () T@U)
(declare-fun StartFuel_Sequences._default.SeqIndexUpdate () T@U)
(declare-fun StartFuelAssert_Sequences._default.SeqIndexUpdate () T@U)
(declare-fun StartFuel_Sequences._default.Zip () T@U)
(declare-fun StartFuelAssert_Sequences._default.Zip () T@U)
(declare-fun StartFuel_Sequences._default.Unzip () T@U)
(declare-fun StartFuelAssert_Sequences._default.Unzip () T@U)
(declare-fun StartFuel_Sequences._default.Flatten () T@U)
(declare-fun StartFuelAssert_Sequences._default.Flatten () T@U)
(declare-fun StartFuel_Sequences._default.seqMax () T@U)
(declare-fun StartFuelAssert_Sequences._default.seqMax () T@U)
(declare-fun StartFuel_Sequences._default.fill () T@U)
(declare-fun StartFuelAssert_Sequences._default.fill () T@U)
(declare-fun StartFuel_Maps._default.MapRemoveStrong () T@U)
(declare-fun StartFuelAssert_Maps._default.MapRemoveStrong () T@U)
(declare-fun StartFuel_Maps._default.MapRemove1Strong () T@U)
(declare-fun StartFuelAssert_Maps._default.MapRemove1Strong () T@U)
(declare-fun StartFuel_Maps._default.IMapInvert () T@U)
(declare-fun StartFuelAssert_Maps._default.IMapInvert () T@U)
(declare-fun StartFuel_Maps._default.IMapRemove () T@U)
(declare-fun StartFuelAssert_Maps._default.IMapRemove () T@U)
(declare-fun StartFuel_Maps._default.IMapRemove1 () T@U)
(declare-fun StartFuelAssert_Maps._default.IMapRemove1 () T@U)
(declare-fun StartFuelAssert_Maps._default.MapDisjointUnion () T@U)
(declare-fun StartFuelAssert_Maps._default.MapUnionPreferA () T@U)
(declare-fun StartFuel_Maps._default.MapUnionPreferB () T@U)
(declare-fun StartFuelAssert_Maps._default.MapUnionPreferB () T@U)
(declare-fun StartFuel_Maps._default.MapUnion () T@U)
(declare-fun StartFuelAssert_Maps._default.MapUnion () T@U)
(declare-fun StartFuelAssert_Maps._default.IMapUnionPreferA () T@U)
(declare-fun StartFuel_Maps._default.IMapUnionPreferB () T@U)
(declare-fun StartFuelAssert_Maps._default.IMapUnionPreferB () T@U)
(declare-fun StartFuel_Maps._default.IMapUnion () T@U)
(declare-fun StartFuelAssert_Maps._default.IMapUnion () T@U)
(declare-fun StartFuel_Maps._default.MapDisjointUnion3 () T@U)
(declare-fun StartFuelAssert_Maps._default.MapDisjointUnion3 () T@U)
(declare-fun StartFuelAssert_MsgHistoryMod.MsgHistory.LSNSet () T@U)
(declare-fun StartFuel_PagedBetree.Path.ReplacedChildren () T@U)
(declare-fun StartFuelAssert_PagedBetree.Path.ReplacedChildren () T@U)
(declare-fun ControlFlow (Int Int) Int)
(declare-fun $IsGoodHeap (T@U) Bool)
(declare-fun $IsHeapAnchor (T@U) Bool)
(declare-fun $IsAlloc (T@U T@U T@U) Bool)
(declare-fun |lambda#4| (T@U T@U T@U Bool) T@U)
(declare-fun alloc () T@U)
(declare-fun null () T@U)
(declare-fun StartFuel_Sequences._default.NoDupes () T@U)
(declare-fun StartFuelAssert_Sequences._default.NoDupes () T@U)
(declare-fun StartFuel_Sequences._default.SeqIndexIterate () T@U)
(declare-fun StartFuel_Sequences._default.FlattenShape () T@U)
(declare-fun StartFuelAssert_Sequences._default.FlattenShape () T@U)
(declare-fun StartFuel_Sequences._default.FlattenLength () T@U)
(declare-fun StartFuelAssert_Sequences._default.FlattenLength () T@U)
(declare-fun StartFuel_MapRemove_s._default.MapRemove1 () T@U)
(declare-fun StartFuelAssert_MapRemove_s._default.MapRemove1 () T@U)
(declare-fun StartFuel_Maps._default.MapRemove () T@U)
(declare-fun StartFuelAssert_Maps._default.MapRemove () T@U)
(declare-fun StartFuel_Maps._default.MapDisjointUnion () T@U)
(declare-fun StartFuel_Maps._default.MapUnionPreferA () T@U)
(declare-fun StartFuel_Maps._default.IMapUnionPreferA () T@U)
(declare-fun StartFuel_MsgHistoryMod.MsgHistory.LSNSet () T@U)
(declare-fun MapType6Select (T@U T@U T@U) T@U)
(declare-fun FieldType (T@T) T@T)
(declare-fun FieldTypeInv0 (T@T) T@T)
(declare-fun |b$reqreads#0@0| () Bool)
(declare-fun $f@@91!1377!4 () T@U)
(declare-fun $o@@141!1377!5 () T@U)
(declare-fun |k#0@@84!1378!6| () T@U)
(declare-fun |lambda#5| (T@U T@U T@U Bool) T@U)
(assert (= (type $LZ) LayerTypeType)) ;; !QUANTIFIER-FREE!
(assert (=> true (=> true (and (U_2_bool (Lit (bool_2_U (TotalKMMapMod.__default.TerminalValue (Lit TotalKMMapMod.__default.DefaultV))))) ($Is TotalKMMapMod.__default.DefaultV Tclass.ValueMessage.Message))))) ;; !QUANTIFIER-FREE!
(assert (= (type this@@248) DatatypeTypeType)) ;; !QUANTIFIER-FREE!
(assert (= (type |key#0@@61|) (SeqType BoxType))) ;; !QUANTIFIER-FREE!
(assert ($Is |key#0@@61| Tclass.KeyType.Key)) ;; !QUANTIFIER-FREE!
(assert (= 10 $FunctionContextHeight)) ;; !QUANTIFIER-FREE!
(assert (or |b$reqreads#0@0| (not (=> (and (= (type $o@@141!1377!5) refType) (= (type $f@@91!1377!4) (FieldType (FieldTypeInv0 (type $f@@91!1377!4)))) false) (U_2_bool (MapType6Select $_Frame@0@@0 $o@@141!1377!5 $f@@91!1377!4)))))) ;; !QUANTIFIER-FREE!
(assert (|PagedBetree.BetreeNode.WF#canCall| this@@248)) ;; !QUANTIFIER-FREE!
(assert (PagedBetree.BetreeNode.WF ($LS $LZ) this@@248)) ;; !QUANTIFIER-FREE!
(assert (PagedBetree.BetreeNode.BetreeNode_q this@@248)) ;; !QUANTIFIER-FREE!
(check-sat)